
n_res = 8;
rcap = [28, 33, 30, 33, 876, 849, 926, 954];
rtype = [1, 1, 1, 1, 2, 2, 2, 2];
n_tasks = 50;
modes =  [{1, 2, 3, 4, 5, 6}, {7, 8, 9, 10, 11, 12}, {13, 14, 15, 16, 17, 18}, {19, 20, 21, 22, 23, 24}, {25, 26, 27, 28, 29, 30}, {31, 32, 33, 34, 35, 36}, {37, 38, 39, 40, 41, 42}, {43, 44, 45, 46, 47, 48}, {49, 50, 51, 52, 53, 54}, {55, 56, 57, 58, 59, 60}, {61, 62, 63, 64, 65, 66}, {67, 68, 69, 70, 71, 72}, {73, 74, 75, 76, 77, 78}, {79, 80, 81, 82, 83, 84}, {85, 86, 87, 88, 89, 90}, {91, 92, 93, 94, 95, 96}, {97, 98, 99, 100, 101, 102}, {103, 104, 105, 106, 107, 108}, {109, 110, 111, 112, 113, 114}, {115, 116, 117, 118, 119, 120}, {121, 122, 123, 124, 125, 126}, {127, 128, 129, 130, 131, 132}, {133, 134, 135, 136, 137, 138}, {139, 140, 141, 142, 143, 144}, {145, 146, 147, 148, 149, 150}, {151, 152, 153, 154, 155, 156}, {157, 158, 159, 160, 161, 162}, {163, 164, 165, 166, 167, 168}, {169, 170, 171, 172, 173, 174}, {175, 176, 177, 178, 179, 180}, {181, 182, 183, 184, 185, 186}, {187, 188, 189, 190, 191, 192}, {193, 194, 195, 196, 197, 198}, {199, 200, 201, 202, 203, 204}, {205, 206, 207, 208, 209, 210}, {211, 212, 213, 214, 215, 216}, {217, 218, 219, 220, 221, 222}, {223, 224, 225, 226, 227, 228}, {229, 230, 231, 232, 233, 234}, {235, 236, 237, 238, 239, 240}, {241, 242, 243, 244, 245, 246}, {247, 248, 249, 250, 251, 252}, {253, 254, 255, 256, 257, 258}, {259, 260, 261, 262, 263, 264}, {265, 266, 267, 268, 269, 270}, {271, 272, 273, 274, 275, 276}, {277, 278, 279, 280, 281, 282}, {283, 284, 285, 286, 287, 288}, {289, 290, 291, 292, 293, 294}, {295, 296, 297, 298, 299, 300}];
succ =  [{48, 35, 30, 29, 19, 16, 7}, {47, 45, 36, 27, 15, 12}, {47, 46, 45, 44, 43, 40, 33, 28, 27, 21, 18}, {50, 49, 45, 40, 33, 27, 24, 22, 18}, {49, 48, 47, 46, 45, 42, 40, 38, 33, 32, 30, 27}, {49, 48, 46, 44, 43, 42, 36, 35, 32, 27}, {47, 44, 43, 42, 34, 33, 28, 21}, {48, 46, 44, 43, 42, 36, 32, 21}, {49, 48, 45, 44, 43, 42, 41, 40, 39, 34, 33, 32}, {49, 47, 45, 40, 27, 18}, {44, 43, 34, 27, 26, 18}, {44, 43, 42, 40, 39, 35, 34, 33, 28}, {46, 44, 43, 40, 39, 35, 32, 31}, {46, 43, 41, 40, 39, 32, 26}, {50, 42, 41, 39, 26}, {43, 41, 40, 39, 38, 32}, {41, 40, 39, 34, 32}, {41, 39, 32, 29}, {40, 39, 33, 26}, {42, 41, 39, 38, 31}, {41, 39, 26}, {43, 38, 32, 31}, {43, 41, 39, 33}, {44, 26}, {40, 39, 31}, {38, 31}, {39, 31}, {32, 31}, {42, 38}, {39, 37}, {37}, {37}, {37}, {38}, {38}, {40}, {}, {}, {}, {}, {}, {}, {}, {}, {}, {}, {}, {}, {}, {}];
n_opt = 300;
dur = [1, 2, 4, 14, 28, 29, 4, 10, 11, 14, 24, 30, 11, 15, 16, 18, 25, 27, 4, 8, 12, 19, 23, 29, 2, 3, 8, 13, 15, 21, 4, 5, 11, 18, 24, 26, 17, 18, 19, 20, 26, 30, 1, 7, 8, 23, 24, 28, 3, 13, 16, 20, 21, 27, 5, 14, 22, 23, 24, 30, 6, 11, 12, 13, 20, 28, 1, 6, 8, 17, 22, 27, 2, 3, 8, 12, 14, 21, 1, 9, 18, 21, 24, 29, 1, 4, 18, 22, 24, 27, 2, 11, 12, 20, 21, 26, 17, 19, 20, 21, 22, 28, 12, 16, 24, 25, 27, 28, 2, 15, 20, 23, 24, 26, 7, 19, 20, 26, 27, 28, 6, 7, 12, 22, 23, 26, 4, 16, 18, 23, 24, 27, 4, 11, 16, 21, 22, 23, 3, 6, 10, 15, 16, 17, 2, 3, 10, 12, 19, 22, 2, 4, 6, 8, 13, 19, 3, 7, 12, 15, 17, 18, 2, 5, 9, 16, 17, 22, 2, 3, 19, 20, 22, 28, 2, 14, 16, 20, 25, 26, 5, 8, 11, 12, 14, 26, 10, 12, 13, 18, 25, 26, 9, 10, 12, 14, 24, 26, 5, 8, 9, 10, 11, 12, 10, 15, 20, 21, 23, 30, 11, 12, 19, 22, 25, 29, 9, 13, 20, 21, 28, 29, 2, 6, 11, 14, 18, 27, 5, 8, 10, 11, 13, 20, 2, 3, 8, 15, 25, 26, 1, 4, 13, 14, 17, 26, 2, 8, 9, 18, 24, 28, 2, 5, 14, 16, 21, 22, 11, 12, 15, 20, 29, 30, 3, 5, 9, 15, 19, 28, 5, 8, 9, 10, 28, 30, 5, 11, 12, 13, 21, 30, 4, 5, 9, 12, 21, 23, 2, 7, 8, 22, 29, 30, 7, 8, 13, 21, 26, 28];
rreq = [|4, 3, 3, 3, 3, 3, 3, 2, 2, 2, 1, 1, 1, 1, 1, 1, 1, 1, 3, 2, 2, 1, 1, 1, 4, 3, 3, 2, 2, 1, 1, 1, 1, 1, 1, 1, 3, 3, 3, 2, 2, 2, 2, 1, 1, 1, 1, 1, 2, 2, 2, 2, 2, 2, 3, 3, 3, 3, 3, 3, 5, 3, 3, 2, 2, 1, 3, 3, 3, 3, 3, 3, 4, 3, 3, 3, 2, 2, 4, 4, 4, 4, 4, 4, 3, 2, 2, 2, 2, 2, 2, 2, 2, 2, 2, 2, 5, 5, 5, 5, 5, 5, 4, 4, 4, 3, 3, 3, 3, 3, 3, 2, 2, 2, 3, 3, 3, 2, 2, 2, 2, 2, 2, 2, 2, 2, 5, 4, 3, 2, 1, 1, 3, 2, 2, 2, 1, 1, 4, 4, 4, 4, 4, 4, 4, 4, 4, 3, 3, 3, 1, 1, 1, 1, 1, 1, 2, 1, 1, 1, 1, 1, 3, 3, 3, 3, 3, 3, 4, 4, 4, 3, 3, 3, 3, 3, 3, 2, 2, 2, 4, 4, 4, 4, 4, 4, 4, 4, 4, 4, 3, 3, 4, 4, 4, 4, 4, 4, 5, 4, 4, 4, 4, 4, 3, 3, 3, 2, 2, 2, 4, 4, 4, 3, 2, 2, 4, 4, 4, 3, 2, 2, 2, 2, 2, 2, 2, 2, 5, 4, 4, 4, 3, 3, 2, 2, 2, 2, 2, 2, 4, 3, 3, 3, 2, 2, 3, 2, 2, 2, 2, 2, 2, 2, 2, 2, 2, 2, 1, 1, 1, 1, 1, 1, 3, 2, 2, 2, 1, 1, 3, 3, 2, 2, 2, 1, 3, 3, 3, 3, 3, 3, 1, 1, 1, 1, 1, 1, 2, 1, 1, 1, 1, 1, 4, 4, 4, 4, 4, 4
 |3, 3, 3, 3, 3, 3, 3, 2, 2, 1, 1, 1, 2, 2, 2, 2, 2, 2, 4, 3, 3, 3, 2, 2, 4, 3, 3, 3, 3, 3, 5, 4, 4, 4, 4, 4, 5, 4, 4, 4, 3, 3, 4, 3, 3, 2, 2, 2, 4, 4, 4, 4, 4, 4, 3, 2, 2, 2, 2, 2, 4, 4, 4, 3, 3, 2, 5, 4, 4, 4, 4, 4, 5, 4, 4, 4, 3, 3, 3, 3, 3, 3, 3, 3, 3, 3, 3, 3, 3, 3, 4, 3, 2, 2, 1, 1, 4, 4, 4, 4, 4, 4, 2, 2, 2, 2, 2, 2, 5, 3, 3, 2, 2, 1, 5, 4, 4, 4, 4, 4, 3, 2, 2, 2, 2, 2, 5, 4, 4, 4, 4, 4, 3, 3, 3, 3, 3, 3, 2, 2, 2, 2, 2, 2, 5, 4, 3, 2, 1, 1, 2, 1, 1, 1, 1, 1, 5, 4, 4, 3, 3, 2, 2, 2, 2, 2, 2, 2, 4, 3, 2, 2, 1, 1, 3, 3, 3, 3, 2, 2, 2, 2, 2, 1, 1, 1, 2, 2, 2, 2, 2, 2, 4, 3, 3, 3, 2, 2, 2, 2, 2, 2, 2, 2, 3, 3, 3, 3, 3, 3, 2, 2, 2, 2, 1, 1, 2, 1, 1, 1, 1, 1, 3, 2, 2, 2, 1, 1, 3, 3, 3, 3, 3, 3, 4, 4, 4, 3, 3, 3, 3, 3, 3, 2, 2, 1, 4, 3, 3, 3, 3, 3, 3, 3, 2, 2, 2, 1, 1, 1, 1, 1, 1, 1, 1, 1, 1, 1, 1, 1, 4, 3, 3, 2, 2, 2, 4, 4, 3, 2, 1, 1, 4, 3, 2, 2, 1, 1, 5, 4, 3, 3, 3, 2, 4, 4, 4, 4, 4, 4
 |4, 4, 4, 3, 3, 2, 5, 4, 3, 3, 2, 2, 5, 5, 5, 5, 5, 5, 4, 4, 4, 4, 4, 4, 1, 1, 1, 1, 1, 1, 5, 4, 4, 3, 3, 3, 4, 3, 3, 3, 3, 3, 3, 2, 2, 2, 1, 1, 4, 4, 3, 3, 3, 2, 3, 3, 3, 3, 3, 3, 2, 2, 2, 2, 2, 2, 3, 3, 3, 3, 3, 3, 4, 4, 4, 4, 4, 4, 2, 2, 2, 2, 2, 2, 4, 4, 3, 3, 3, 2, 4, 4, 4, 4, 4, 4, 4, 4, 4, 4, 4, 4, 3, 3, 2, 2, 1, 1, 3, 3, 3, 3, 3, 3, 2, 2, 2, 2, 2, 2, 3, 3, 3, 3, 3, 3, 4, 3, 3, 3, 3, 3, 4, 3, 3, 3, 2, 2, 5, 4, 4, 4, 3, 3, 4, 4, 3, 3, 1, 1, 2, 2, 2, 1, 1, 1, 5, 4, 4, 4, 3, 3, 3, 3, 3, 3, 2, 2, 3, 2, 2, 2, 1, 1, 5, 4, 4, 4, 4, 4, 5, 4, 3, 3, 3, 2, 1, 1, 1, 1, 1, 1, 3, 3, 3, 3, 2, 2, 2, 2, 2, 2, 1, 1, 4, 3, 3, 2, 2, 2, 1, 1, 1, 1, 1, 1, 4, 4, 4, 4, 4, 4, 2, 2, 2, 2, 1, 1, 3, 3, 3, 3, 2, 2, 3, 2, 2, 2, 1, 1, 4, 4, 4, 4, 4, 4, 4, 4, 3, 3, 1, 1, 2, 1, 1, 1, 1, 1, 4, 3, 3, 3, 2, 1, 4, 3, 3, 2, 1, 1, 4, 4, 4, 3, 2, 2, 1, 1, 1, 1, 1, 1, 3, 2, 2, 1, 1, 1, 5, 3, 3, 3, 1, 1, 3, 3, 3, 3, 2, 2
 |4, 4, 4, 4, 4, 4, 4, 4, 3, 3, 1, 1, 4, 4, 4, 4, 4, 4, 3, 3, 3, 3, 3, 3, 4, 3, 3, 3, 3, 3, 5, 4, 4, 3, 3, 2, 3, 3, 3, 2, 1, 1, 2, 2, 2, 2, 2, 2, 4, 4, 3, 3, 2, 1, 4, 3, 3, 2, 2, 2, 2, 2, 2, 2, 2, 2, 2, 1, 1, 1, 1, 1, 4, 4, 4, 3, 2, 2, 5, 4, 4, 3, 2, 2, 4, 3, 3, 2, 2, 2, 1, 1, 1, 1, 1, 1, 5, 4, 4, 4, 3, 3, 4, 4, 3, 3, 2, 2, 3, 3, 3, 3, 2, 2, 5, 4, 4, 4, 3, 3, 1, 1, 1, 1, 1, 1, 4, 4, 4, 3, 3, 3, 4, 4, 4, 3, 3, 3, 4, 4, 4, 3, 2, 2, 3, 3, 3, 3, 3, 3, 3, 3, 2, 2, 1, 1, 5, 5, 5, 5, 5, 5, 3, 3, 3, 3, 3, 3, 5, 4, 4, 4, 4, 4, 4, 4, 3, 3, 2, 2, 2, 2, 2, 1, 1, 1, 5, 4, 3, 3, 2, 2, 2, 1, 1, 1, 1, 1, 4, 4, 4, 3, 2, 2, 4, 4, 4, 4, 3, 3, 2, 1, 1, 1, 1, 1, 1, 1, 1, 1, 1, 1, 5, 5, 5, 5, 5, 5, 4, 3, 3, 2, 2, 2, 5, 3, 3, 3, 2, 1, 3, 2, 2, 2, 2, 2, 2, 1, 1, 1, 1, 1, 3, 2, 2, 2, 1, 1, 4, 4, 4, 4, 4, 4, 3, 3, 2, 2, 1, 1, 4, 4, 3, 3, 1, 1, 3, 3, 3, 3, 3, 3, 3, 2, 2, 2, 1, 1, 4, 3, 3, 3, 3, 3, 4, 3, 3, 3, 3, 3
 |25, 25, 22, 21, 19, 18, 30, 26, 24, 24, 20, 19, 17, 15, 13, 12, 10, 9, 29, 27, 26, 23, 22, 21, 25, 22, 19, 15, 9, 5, 19, 18, 18, 17, 14, 14, 17, 16, 15, 15, 14, 14, 16, 15, 15, 15, 15, 15, 14, 12, 10, 10, 7, 7, 18, 14, 13, 11, 9, 5, 16, 15, 15, 15, 14, 14, 19, 19, 19, 18, 17, 17, 13, 11, 9, 8, 7, 5, 30, 24, 23, 18, 16, 14, 21, 21, 18, 17, 16, 13, 29, 22, 16, 13, 9, 5, 27, 27, 27, 26, 25, 25, 22, 21, 19, 16, 15, 13, 16, 16, 14, 14, 13, 12, 20, 16, 13, 11, 6, 3, 2, 2, 2, 1, 1, 1, 23, 23, 23, 23, 23, 23, 14, 12, 11, 8, 7, 6, 12, 10, 9, 6, 4, 3, 27, 21, 19, 15, 10, 5, 19, 15, 15, 8, 6, 3, 19, 18, 14, 13, 12, 9, 25, 23, 22, 22, 21, 19, 22, 19, 13, 10, 7, 4, 14, 13, 12, 12, 10, 10, 16, 15, 12, 9, 7, 4, 16, 13, 10, 7, 5, 3, 26, 22, 19, 16, 12, 10, 19, 19, 17, 14, 11, 8, 18, 18, 13, 12, 6, 6, 24, 23, 22, 22, 20, 20, 14, 12, 11, 10, 9, 8, 5, 4, 3, 3, 2, 2, 29, 21, 17, 15, 7, 5, 20, 17, 14, 10, 7, 4, 25, 17, 17, 12, 9, 1, 21, 20, 18, 18, 16, 15, 18, 15, 15, 14, 11, 10, 26, 25, 23, 23, 22, 21, 23, 21, 17, 13, 10, 7, 30, 22, 22, 15, 11, 9, 23, 22, 22, 21, 20, 20, 11, 9, 8, 7, 6, 6, 6, 5, 4, 3, 2, 2, 26, 25, 25, 25, 25, 25
 |3, 2, 2, 2, 1, 1, 27, 21, 16, 13, 10, 4, 13, 12, 10, 6, 4, 3, 27, 19, 18, 11, 5, 3, 25, 23, 22, 20, 18, 18, 14, 12, 11, 10, 9, 7, 10, 10, 10, 10, 9, 9, 20, 19, 19, 18, 18, 18, 9, 9, 9, 8, 7, 7, 9, 9, 9, 9, 9, 9, 28, 25, 20, 18, 14, 11, 19, 18, 18, 18, 18, 18, 21, 19, 18, 16, 14, 14, 21, 18, 16, 14, 12, 10, 24, 23, 21, 20, 20, 18, 11, 8, 7, 5, 5, 3, 28, 21, 19, 15, 13, 12, 24, 21, 18, 14, 11, 4, 13, 12, 11, 9, 6, 6, 27, 24, 19, 18, 15, 10, 30, 28, 28, 26, 25, 24, 26, 26, 25, 23, 22, 21, 24, 24, 24, 24, 24, 24, 29, 21, 21, 18, 14, 9, 28, 27, 24, 22, 21, 19, 15, 15, 11, 8, 6, 1, 13, 11, 9, 6, 5, 4, 19, 15, 15, 12, 8, 6, 26, 24, 24, 22, 19, 17, 21, 20, 20, 19, 19, 19, 20, 16, 16, 12, 10, 9, 8, 8, 8, 8, 8, 8, 20, 19, 19, 18, 18, 18, 25, 22, 18, 14, 11, 7, 28, 24, 18, 14, 13, 7, 12, 11, 8, 7, 3, 1, 23, 19, 14, 11, 7, 5, 28, 27, 26, 25, 21, 20, 17, 13, 12, 11, 7, 7, 2, 1, 1, 1, 1, 1, 15, 13, 12, 12, 10, 9, 13, 12, 12, 11, 10, 10, 10, 9, 8, 4, 3, 2, 27, 23, 21, 18, 15, 12, 19, 17, 15, 13, 11, 10, 26, 21, 17, 12, 5, 3, 16, 14, 11, 9, 6, 5, 14, 14, 14, 14, 14, 14, 23, 23, 23, 23, 23, 23, 14, 11, 11, 7, 5, 5
 |24, 22, 21, 21, 20, 19, 27, 27, 25, 25, 23, 23, 19, 18, 15, 14, 12, 10, 24, 22, 22, 22, 21, 20, 14, 12, 10, 10, 7, 6, 28, 27, 27, 26, 25, 25, 27, 25, 23, 21, 19, 18, 17, 16, 16, 15, 15, 15, 29, 26, 21, 19, 16, 14, 16, 15, 15, 15, 15, 15, 25, 22, 17, 14, 8, 5, 24, 22, 20, 18, 17, 14, 10, 10, 9, 7, 7, 5, 19, 16, 14, 12, 8, 5, 28, 27, 26, 25, 24, 24, 15, 12, 10, 9, 8, 6, 6, 6, 6, 6, 6, 6, 25, 23, 20, 19, 15, 10, 14, 14, 11, 6, 6, 2, 15, 15, 12, 12, 10, 8, 28, 28, 28, 28, 28, 28, 16, 14, 14, 14, 12, 12, 28, 27, 24, 20, 16, 16, 21, 21, 16, 14, 11, 10, 25, 24, 20, 17, 14, 12, 22, 19, 16, 12, 11, 7, 14, 13, 12, 11, 9, 8, 27, 19, 18, 14, 6, 5, 16, 13, 13, 7, 6, 2, 9, 8, 8, 8, 8, 8, 13, 13, 8, 6, 6, 1, 16, 16, 15, 14, 14, 13, 27, 24, 20, 20, 17, 13, 26, 20, 17, 13, 11, 10, 15, 14, 14, 14, 14, 14, 26, 24, 24, 19, 17, 16, 20, 16, 16, 14, 10, 10, 21, 20, 19, 18, 17, 16, 23, 22, 20, 18, 15, 13, 29, 26, 22, 19, 17, 13, 14, 14, 12, 11, 8, 8, 16, 15, 15, 15, 14, 14, 28, 23, 17, 16, 9, 7, 25, 22, 21, 19, 18, 18, 28, 28, 28, 28, 28, 28, 14, 14, 11, 11, 9, 8, 23, 23, 21, 21, 20, 19, 7, 7, 7, 6, 5, 5, 20, 19, 19, 17, 16, 15, 29, 25, 22, 19, 14, 11
 |23, 17, 14, 14, 6, 4, 23, 23, 22, 21, 20, 20, 18, 18, 13, 10, 6, 6, 7, 7, 5, 4, 3, 3, 30, 26, 25, 21, 20, 18, 23, 23, 23, 23, 22, 22, 29, 29, 29, 28, 28, 27, 9, 8, 7, 7, 7, 6, 11, 10, 9, 8, 7, 6, 18, 15, 14, 12, 8, 8, 26, 25, 25, 25, 25, 25, 24, 21, 19, 19, 15, 15, 25, 21, 17, 14, 11, 10, 21, 20, 19, 19, 17, 17, 25, 22, 20, 20, 18, 16, 21, 20, 20, 18, 18, 16, 17, 15, 11, 10, 7, 7, 7, 6, 6, 6, 4, 4, 25, 22, 20, 19, 18, 16, 29, 25, 23, 20, 18, 14, 26, 19, 17, 14, 9, 6, 27, 26, 22, 14, 13, 8, 22, 19, 17, 16, 15, 13, 17, 17, 17, 16, 16, 15, 29, 29, 29, 28, 27, 27, 13, 12, 12, 11, 10, 10, 19, 19, 18, 18, 17, 17, 7, 6, 4, 4, 2, 1, 20, 19, 18, 18, 17, 17, 25, 18, 18, 14, 5, 3, 18, 13, 9, 6, 4, 2, 27, 25, 25, 24, 23, 22, 22, 18, 15, 12, 11, 9, 28, 27, 26, 26, 24, 24, 24, 24, 21, 19, 17, 16, 27, 23, 19, 14, 11, 8, 24, 20, 16, 13, 8, 3, 23, 19, 19, 14, 13, 10, 6, 6, 6, 6, 6, 6, 20, 16, 14, 13, 12, 9, 24, 23, 22, 21, 21, 20, 21, 18, 16, 14, 12, 11, 29, 25, 22, 20, 19, 15, 21, 17, 14, 12, 10, 6, 26, 24, 24, 23, 23, 22, 22, 18, 16, 13, 12, 9, 18, 18, 18, 18, 18, 18, 28, 26, 25, 23, 22, 20, 15, 14, 11, 8, 6, 5, 28, 23, 20, 14, 6, 4|];